NAME: instance_11
TYPE: TSP
COMMENT: 11-city problem
DIMENSION: 11
EDGE_WEIGHT_TYPE: EUC_2D
NODE_COORD_SECTION
0 496 526
1 278 365
2 51 887
3 455 97
4 356 210
5 545 298
6 552 984
7 844 260
8 862 847
9 175 433
10 869 267
EOF
